10
-1 70 86 17 59 78 62 25 94 79 
23 -1 54 31 17 92 4 67 85 89 
43 95 -1 65 96 46 69 95 4 69 
55 16 62 -1 44 31 25 10 89 57 
66 13 85 6 -1 15 91 8 20 22 
76 42 33 12 58 -1 78 95 90 47 
30 17 96 4 31 46 -1 46 55 90 
27 48 91 74 37 76 46 -1 16 38 
27 56 67 22 22 94 88 22 -1 42 
40 15 79 74 95 75 55 71 12 -1 
